Evaluation/FM/kcr/toybox_0_7_5.dimacs
c 120 GETENFORCE
c 117 TOYBOX_MUSL_NOMMU_IS_BROKEN
c 84 LOG
c 103 NETCAT
c 42 TOYBOX_LIBZ
c 107 START
c 32 SYSLOGD
c 14 TOYBOX_LSM_NONE
c 83 SEQ
c 5 TOYBOX_FORK
c 87 TOYBOX_UID_SYS=1
c 108 HELP_EXTRAS
c 50 TOYBOX_UID_USR=1
c 21 MDEV_CONF
c 79 LS_COLOR
c 78 FGREP
c 54 MKFIFO
c 49 TOYBOX_UID_USR=0
c 46 GREP
c 47 EGREP
c 44 TOYBOX_UTMPX
c 122 MODULES
c 113 TIMEOUT
c 60 XARGS
c 89 SHA512SUM
c 80 LS
c 101 LSPCI
c 104 SHA384SUM
c 51 TOYBOX_UID_USR=500
c 58 UNSHARE
c 12 MKE2FS
c 99 CAT
c 38 CHOICE_1
c 74 SLEEP
c 94 KLOGD
c 61 MKE2FS_EXTENDED
c 73 ID_Z
c 65 MKNOD_Z
c 59 XARGS_PEDANTIC
c 19 TOYBOX_LIBCRYPTO
c 109 MKPASSWD
c 62 TCPSVD
c 31 LOGGER
c 76 TOYBOX_HELP_DASHDASH
c 29 TOYBOX_FALLOCATE
c 82 CP
c 70 TIME
c 92 KILL
c 105 PASSWD_SAD
c 95 SULOGIN
c 57 SHA224SUM
c 3 SORT_FLOAT
c 115 GZIP
c 41 ZCAT
c 112 SORT
c 16 SU
c 48 TOYBOX_UID_USR=n
c 91 KILLALL5
c 77 LOGIN
c 64 MKNOD
c 13 MKDIR
c 66 MKE2FS_GEN
c 36 TOYBOX_ICONV
c 25 MKE2FS_JOURNAL
c 100 LSPCI_TEXT
c 34 DHCPD
c 23 STOP
c 4 CRONTAB
c 69 CHCON
c 114 LOAD_POLICY
c 20 TOYBOX
c 7 CD
c 15 MKDIR_Z
c 85 TOYBOX_UID_SYS=n
c 52 TOYBOX_FIFREEZE
c 35 ICONV
c 96 TAIL_SEEK
c 40 GETPROP
c 81 CP_PRESERVE
c 93 KLOGD_SOURCE_RING_BUFFER
c 116 EXIT
c 71 GUNZIP
c 45 TOYBOX_CONTAINER
c 33 DEBUG_DHCP
c 18 SHA256SUM
c 98 CAT_V
c 63 OPENVT
c 102 NETCAT_LISTEN
c 118 TOYBOX_ANDROID_SCHEDPOLICY
c 30 PASSWD
c 26 SETPROP
c 106 ULIMIT
c 28 FALLOCATE
c 119 SENDEVENT
c 43 W
c 90 UPTIME
c 2 TOYBOX_FLOAT
c 9 HELP
c 11 MKE2FS_LABEL
c 56 NSENTER
c 55 MKFIFO_Z
c 6 NBD_CLIENT
c 22 MDEV
c 110 RUNCON
c 24 TOYBOX_ON_ANDROID
c 68 SETENFORCE
c 121 RESTORECON
c 39 TOYBOX_SELINUX
c 17 TOYBOX_SHADOW
c 1 SORT_BIG
c 53 WHO
c 97 TAIL
c 86 TOYBOX_UID_SYS=0
c 8 SH
c 111 FSFREEZE
c 27 TOYBOX_PRLIMIT
c 67 BOOTCHARTD
c 88 TOYBOX_UID_SYS=100
c 75 SLEEP_FLOAT
c 72 ID
c 37 TOYBOX_SMACK
c 10 TOYBOX_HELP
p cnf 122 212
-1 -2 3 0
2 -3 0
1 -3 0
2 -3 0
1 -3 0
-4 5 0
-4 5 0
-6 5 0
-6 5 0
-7 0
-7 8 0
-9 10 0
-9 10 0
-11 12 0
-11 12 0
-13 14 15 0
-14 -15 0
13 -15 0
-14 -15 0
13 -15 0
-16 17 0
-16 17 0
-18 19 0
-18 19 0
20 0
-21 22 0
-21 22 0
-23 24 0
-23 24 0
-25 12 0
-25 12 0
-26 24 0
-26 24 0
-27 0
-28 29 0
-28 29 0
-30 17 0
-30 17 0
-31 32 0
-31 32 0
-33 34 0
-33 34 0
-35 36 0
-35 36 0
-37 38 0
-37 38 0
39 -40 0
24 -40 0
39 -40 0
24 -40 0
-41 42 0
-41 42 0
-43 44 0
-43 44 0
-45 0
-46 47 0
-47 46 0
-47 46 0
-48 0
49 50 51 48 0
-49 -50 0
-49 -51 0
-49 -48 0
-50 -51 0
-50 -48 0
-51 -48 0
52 0
-53 44 0
-53 44 0
-54 14 55 0
-14 -55 0
54 -55 0
-14 -55 0
54 -55 0
-56 45 0
-56 45 0
-57 19 0
-57 19 0
-58 45 0
-58 45 0
-59 60 0
-59 60 0
-61 12 0
-61 12 0
-62 5 0
-62 5 0
-63 5 0
-63 5 0
-64 14 65 0
-14 -65 0
64 -65 0
-14 -65 0
64 -65 0
-66 12 0
-66 12 0
29 0
-67 5 0
-67 5 0
36 0
17 0
-39 38 0
-39 38 0
44 0
-68 39 0
-68 39 0
-69 39 0
-69 39 0
-70 2 0
-70 2 0
-71 42 0
-71 42 0
-72 14 73 0
-14 -73 0
72 -73 0
-14 -73 0
72 -73 0
-74 -2 75 0
2 -75 0
74 -75 0
2 -75 0
74 -75 0
-76 10 0
-76 10 0
-77 17 0
-77 17 0
-46 78 0
-78 46 0
-78 46 0
-79 80 0
-79 80 0
-81 82 0
-81 82 0
-83 2 0
-83 2 0
-84 24 0
-84 24 0
-85 0
86 87 88 85 0
-86 -87 0
-86 -88 0
-86 -85 0
-87 -88 0
-87 -85 0
-88 -85 0
-89 19 0
-89 19 0
-90 44 0
-90 44 0
-91 92 0
-91 92 0
-24 0
-93 94 0
-93 94 0
-95 17 0
-95 17 0
-96 97 0
-96 97 0
-98 99 0
-98 99 0
-100 101 0
-100 101 0
-102 103 0
-102 103 0
38 0
-104 19 0
-104 19 0
-105 30 0
-105 30 0
-106 27 0
-106 27 0
-107 24 0
-107 24 0
-14 38 0
-14 38 0
9 -108 0
20 -108 0
9 -108 0
20 -108 0
-109 -24 0
-109 -24 0
-110 39 0
-110 39 0
-111 52 0
-111 52 0
-1 112 0
-1 112 0
-113 2 0
-113 2 0
-114 39 0
-114 39 0
-115 42 0
-115 42 0
-116 0
-116 8 0
117 5 0
-5 -117 0
-5 -117 0
-118 0
-119 24 0
-119 24 0
-120 39 0
-120 39 0
-121 39 0
-121 39 0
37 39 14 -38 0
-37 38 0
-39 38 0
-14 38 0
-37 -39 0
-37 -14 0
-39 -14 0
-122 0
